
n_res = 6;
rcap = [24, 28, 25, 30, 654, 716];
rtype = [1, 1, 1, 1, 2, 2];
n_tasks = 50;
modes =  [{1, 2, 3, 4, 5, 6}, {7, 8, 9, 10, 11, 12}, {13, 14, 15, 16, 17, 18}, {19, 20, 21, 22, 23, 24}, {25, 26, 27, 28, 29, 30}, {31, 32, 33, 34, 35, 36}, {37, 38, 39, 40, 41, 42}, {43, 44, 45, 46, 47, 48}, {49, 50, 51, 52, 53, 54}, {55, 56, 57, 58, 59, 60}, {61, 62, 63, 64, 65, 66}, {67, 68, 69, 70, 71, 72}, {73, 74, 75, 76, 77, 78}, {79, 80, 81, 82, 83, 84}, {85, 86, 87, 88, 89, 90}, {91, 92, 93, 94, 95, 96}, {97, 98, 99, 100, 101, 102}, {103, 104, 105, 106, 107, 108}, {109, 110, 111, 112, 113, 114}, {115, 116, 117, 118, 119, 120}, {121, 122, 123, 124, 125, 126}, {127, 128, 129, 130, 131, 132}, {133, 134, 135, 136, 137, 138}, {139, 140, 141, 142, 143, 144}, {145, 146, 147, 148, 149, 150}, {151, 152, 153, 154, 155, 156}, {157, 158, 159, 160, 161, 162}, {163, 164, 165, 166, 167, 168}, {169, 170, 171, 172, 173, 174}, {175, 176, 177, 178, 179, 180}, {181, 182, 183, 184, 185, 186}, {187, 188, 189, 190, 191, 192}, {193, 194, 195, 196, 197, 198}, {199, 200, 201, 202, 203, 204}, {205, 206, 207, 208, 209, 210}, {211, 212, 213, 214, 215, 216}, {217, 218, 219, 220, 221, 222}, {223, 224, 225, 226, 227, 228}, {229, 230, 231, 232, 233, 234}, {235, 236, 237, 238, 239, 240}, {241, 242, 243, 244, 245, 246}, {247, 248, 249, 250, 251, 252}, {253, 254, 255, 256, 257, 258}, {259, 260, 261, 262, 263, 264}, {265, 266, 267, 268, 269, 270}, {271, 272, 273, 274, 275, 276}, {277, 278, 279, 280, 281, 282}, {283, 284, 285, 286, 287, 288}, {289, 290, 291, 292, 293, 294}, {295, 296, 297, 298, 299, 300}];
succ =  [{46, 39, 25, 23, 21, 19, 13, 9}, {48, 47, 36, 30, 26, 24, 13, 11}, {49, 48, 47, 45, 42, 39, 31, 30, 29, 27, 25, 24, 20, 18}, {48, 45, 43, 40, 38, 36, 29, 24, 11}, {45, 43, 42, 39, 38, 36, 31, 30, 28, 26, 20}, {50, 48, 46, 39, 30, 27, 21, 19, 18}, {49, 45, 44, 39, 33, 30, 28, 27, 18}, {49, 48, 44, 41, 38, 36, 34, 17}, {49, 45, 43, 30, 28, 24, 18}, {46, 44, 42, 40, 39, 38, 37, 36, 35, 34, 29}, {44, 41, 39, 37, 34, 33, 28, 27, 25}, {42, 40, 39, 37, 36, 34, 33, 28, 27}, {43, 42, 38, 29, 20}, {39, 28, 27, 21}, {45, 43, 42, 40, 37, 34, 33, 27}, {42, 40, 38, 36, 34, 33, 26}, {45, 42, 39, 35, 33, 29}, {41, 38, 37, 36, 34, 32}, {43, 40, 35, 34, 33, 32}, {44, 40, 37, 34, 33}, {43, 36, 34, 33, 32}, {38, 36, 33, 27}, {47, 34, 27}, {35, 33, 32}, {35, 32}, {41, 32}, {32}, {35}, {32}, {34}, {33}, {}, {}, {}, {}, {}, {}, {}, {}, {}, {}, {}, {}, {}, {}, {}, {}, {}, {}, {}];
n_opt = 300;
dur = [2, 5, 16, 21, 25, 29, 12, 24, 25, 27, 28, 29, 2, 11, 14, 22, 26, 27, 7, 9, 10, 17, 24, 30, 1, 3, 6, 11, 25, 28, 11, 15, 17, 18, 20, 25, 6, 20, 21, 22, 27, 29, 8, 9, 14, 16, 17, 19, 5, 6, 9, 18, 19, 20, 2, 3, 12, 19, 24, 30, 6, 8, 12, 26, 27, 28, 1, 2, 3, 4, 12, 30, 6, 11, 14, 15, 17, 22, 1, 18, 23, 27, 29, 30, 10, 17, 20, 24, 25, 28, 5, 7, 16, 18, 19, 23, 1, 7, 14, 24, 29, 30, 5, 16, 17, 21, 22, 28, 3, 14, 20, 21, 27, 28, 8, 22, 23, 24, 25, 30, 8, 9, 13, 21, 22, 30, 4, 7, 8, 26, 27, 29, 1, 3, 5, 6, 13, 16, 9, 12, 14, 21, 27, 29, 6, 8, 12, 18, 27, 30, 1, 2, 3, 5, 9, 10, 3, 6, 14, 22, 26, 28, 3, 7, 16, 17, 18, 19, 5, 9, 16, 17, 25, 30, 5, 10, 15, 17, 20, 28, 1, 3, 14, 23, 28, 29, 7, 8, 10, 22, 23, 27, 2, 4, 12, 18, 25, 26, 1, 2, 14, 20, 24, 30, 12, 18, 20, 23, 25, 29, 1, 8, 9, 20, 21, 24, 1, 12, 14, 19, 20, 22, 5, 10, 13, 22, 23, 24, 1, 3, 4, 11, 15, 24, 1, 3, 13, 16, 19, 25, 1, 4, 14, 20, 21, 30, 7, 10, 19, 20, 22, 27, 4, 8, 13, 18, 20, 23, 10, 11, 14, 15, 24, 29, 1, 2, 14, 15, 17, 28, 4, 7, 11, 21, 27, 28, 6, 8, 20, 21, 25, 29, 5, 10, 17, 20, 25, 26, 1, 7, 8, 14, 16, 19, 7, 12, 13, 18, 21, 28];
rreq = [|3, 3, 3, 2, 1, 1, 2, 2, 2, 2, 2, 2, 2, 2, 2, 2, 2, 2, 3, 2, 2, 2, 2, 2, 4, 4, 4, 4, 4, 4, 2, 1, 1, 1, 1, 1, 3, 3, 3, 3, 3, 3, 3, 2, 2, 2, 1, 1, 2, 2, 2, 2, 2, 2, 4, 4, 3, 2, 2, 1, 4, 4, 4, 4, 4, 4, 4, 4, 4, 3, 3, 2, 2, 2, 2, 1, 1, 1, 2, 2, 2, 2, 1, 1, 5, 4, 3, 3, 3, 2, 1, 1, 1, 1, 1, 1, 4, 3, 3, 2, 2, 2, 3, 3, 2, 2, 2, 1, 3, 3, 2, 2, 2, 1, 5, 5, 5, 5, 5, 5, 3, 2, 2, 2, 2, 2, 2, 2, 2, 2, 2, 2, 5, 5, 5, 5, 5, 5, 1, 1, 1, 1, 1, 1, 5, 4, 4, 3, 3, 3, 3, 3, 3, 3, 3, 3, 4, 3, 3, 3, 3, 3, 5, 5, 5, 5, 5, 5, 5, 4, 4, 3, 2, 2, 3, 3, 3, 2, 2, 1, 2, 2, 2, 2, 2, 2, 4, 3, 2, 2, 2, 1, 3, 3, 3, 3, 3, 3, 5, 4, 4, 4, 3, 3, 3, 2, 2, 2, 2, 2, 1, 1, 1, 1, 1, 1, 1, 1, 1, 1, 1, 1, 5, 5, 5, 5, 5, 5, 4, 4, 4, 4, 4, 4, 2, 2, 2, 2, 2, 2, 5, 4, 3, 3, 2, 1, 2, 2, 2, 2, 2, 2, 4, 4, 3, 3, 3, 2, 4, 3, 3, 3, 2, 2, 3, 3, 3, 2, 2, 2, 4, 3, 3, 2, 1, 1, 5, 5, 5, 5, 5, 5, 5, 4, 3, 3, 3, 2, 4, 3, 3, 2, 2, 1, 2, 2, 2, 2, 1, 1
 |4, 4, 4, 3, 3, 3, 4, 4, 4, 4, 3, 3, 3, 2, 2, 2, 2, 2, 1, 1, 1, 1, 1, 1, 4, 3, 3, 2, 1, 1, 5, 4, 4, 4, 4, 4, 3, 3, 3, 3, 3, 3, 2, 2, 2, 2, 2, 2, 3, 2, 2, 2, 1, 1, 3, 3, 3, 3, 3, 3, 5, 4, 4, 4, 4, 4, 5, 4, 4, 4, 3, 3, 3, 3, 3, 3, 2, 2, 4, 3, 3, 3, 2, 2, 3, 3, 3, 3, 3, 3, 5, 4, 4, 4, 4, 4, 5, 5, 5, 5, 5, 5, 2, 2, 2, 2, 2, 2, 4, 3, 3, 2, 2, 1, 1, 1, 1, 1, 1, 1, 4, 3, 3, 2, 2, 1, 5, 4, 4, 4, 3, 3, 3, 3, 3, 3, 3, 3, 3, 3, 2, 2, 2, 1, 5, 4, 3, 2, 2, 1, 5, 5, 5, 5, 5, 5, 1, 1, 1, 1, 1, 1, 4, 4, 4, 3, 3, 2, 1, 1, 1, 1, 1, 1, 4, 3, 2, 2, 1, 1, 2, 1, 1, 1, 1, 1, 2, 2, 2, 2, 1, 1, 2, 2, 2, 1, 1, 1, 5, 4, 3, 3, 3, 2, 2, 2, 2, 2, 2, 2, 3, 2, 2, 1, 1, 1, 3, 3, 3, 3, 2, 2, 4, 4, 3, 3, 2, 2, 5, 4, 3, 3, 3, 2, 4, 4, 4, 4, 4, 4, 3, 3, 3, 3, 2, 2, 4, 3, 3, 2, 2, 2, 3, 3, 3, 3, 2, 2, 4, 3, 3, 3, 3, 3, 5, 4, 3, 2, 1, 1, 2, 2, 2, 2, 2, 2, 4, 4, 3, 3, 2, 1, 3, 3, 3, 3, 3, 3, 2, 2, 2, 1, 1, 1, 2, 2, 2, 2, 1, 1
 |5, 3, 3, 2, 2, 1, 3, 2, 2, 2, 2, 2, 2, 1, 1, 1, 1, 1, 1, 1, 1, 1, 1, 1, 4, 3, 2, 2, 1, 1, 4, 3, 3, 3, 2, 2, 2, 2, 2, 2, 2, 2, 4, 4, 4, 3, 2, 2, 4, 3, 2, 2, 2, 1, 4, 3, 3, 3, 2, 2, 2, 2, 2, 2, 2, 2, 3, 2, 2, 1, 1, 1, 5, 4, 4, 4, 4, 4, 2, 2, 2, 2, 2, 2, 2, 1, 1, 1, 1, 1, 3, 2, 2, 2, 1, 1, 4, 4, 3, 3, 2, 2, 3, 3, 3, 2, 1, 1, 4, 4, 4, 4, 4, 4, 4, 4, 4, 4, 4, 4, 3, 3, 3, 2, 2, 2, 2, 2, 2, 1, 1, 1, 5, 5, 5, 5, 5, 5, 5, 4, 4, 3, 3, 2, 4, 4, 4, 4, 3, 3, 3, 3, 3, 2, 2, 2, 5, 4, 4, 4, 3, 3, 4, 4, 3, 3, 3, 2, 5, 5, 5, 5, 5, 5, 3, 2, 2, 2, 2, 2, 2, 2, 2, 1, 1, 1, 4, 3, 3, 2, 2, 1, 3, 3, 2, 2, 1, 1, 5, 4, 3, 2, 2, 1, 3, 3, 3, 3, 2, 2, 4, 4, 4, 3, 3, 3, 3, 3, 3, 3, 2, 2, 5, 5, 5, 5, 5, 5, 4, 3, 3, 3, 3, 3, 3, 3, 3, 3, 3, 3, 3, 3, 3, 3, 3, 3, 4, 3, 2, 2, 2, 1, 4, 3, 3, 2, 2, 1, 3, 2, 2, 2, 2, 2, 3, 3, 3, 3, 3, 3, 4, 4, 3, 3, 2, 2, 5, 4, 4, 4, 4, 4, 5, 4, 4, 4, 4, 4, 2, 2, 2, 2, 2, 2, 4, 4, 3, 3, 2, 1
 |5, 4, 3, 3, 2, 2, 5, 3, 3, 3, 2, 1, 3, 3, 3, 3, 3, 3, 4, 4, 4, 4, 4, 4, 4, 4, 4, 4, 4, 4, 3, 3, 3, 3, 3, 3, 4, 3, 2, 2, 1, 1, 3, 3, 3, 3, 2, 2, 4, 3, 3, 2, 2, 2, 4, 4, 4, 4, 4, 4, 4, 4, 4, 4, 4, 4, 5, 4, 3, 3, 3, 2, 1, 1, 1, 1, 1, 1, 5, 4, 4, 4, 3, 3, 3, 3, 3, 3, 2, 2, 3, 3, 3, 3, 3, 3, 5, 4, 3, 3, 1, 1, 5, 4, 3, 3, 2, 2, 5, 3, 3, 2, 2, 1, 3, 3, 3, 3, 3, 3, 4, 4, 4, 4, 4, 4, 5, 5, 5, 5, 5, 5, 5, 4, 4, 4, 3, 3, 2, 2, 2, 2, 2, 2, 4, 3, 3, 3, 3, 3, 3, 2, 2, 1, 1, 1, 3, 3, 3, 3, 3, 3, 1, 1, 1, 1, 1, 1, 5, 4, 4, 4, 4, 4, 1, 1, 1, 1, 1, 1, 5, 4, 4, 3, 2, 2, 3, 2, 2, 1, 1, 1, 2, 2, 2, 2, 1, 1, 3, 3, 3, 3, 3, 3, 4, 4, 4, 4, 3, 3, 3, 2, 2, 2, 2, 2, 2, 2, 2, 2, 1, 1, 1, 1, 1, 1, 1, 1, 5, 4, 4, 4, 4, 4, 1, 1, 1, 1, 1, 1, 5, 4, 4, 4, 4, 4, 4, 4, 4, 4, 4, 4, 3, 3, 3, 2, 2, 1, 4, 4, 3, 3, 3, 2, 4, 3, 3, 3, 3, 3, 1, 1, 1, 1, 1, 1, 5, 4, 4, 4, 4, 4, 4, 3, 3, 3, 2, 2, 5, 5, 5, 5, 5, 5, 4, 4, 4, 3, 3, 2
 |10, 9, 9, 8, 8, 8, 28, 27, 27, 26, 25, 25, 7, 6, 6, 6, 6, 6, 22, 21, 20, 20, 18, 18, 19, 19, 18, 15, 14, 13, 25, 19, 18, 16, 11, 8, 7, 6, 5, 5, 3, 3, 23, 20, 16, 13, 9, 8, 22, 21, 16, 11, 7, 5, 27, 25, 25, 24, 24, 23, 22, 21, 20, 20, 19, 19, 17, 14, 14, 11, 7, 5, 26, 23, 21, 21, 18, 17, 5, 4, 4, 4, 3, 3, 14, 13, 12, 10, 7, 6, 6, 5, 5, 4, 4, 3, 21, 19, 14, 10, 5, 3, 22, 17, 13, 11, 8, 6, 25, 22, 21, 17, 16, 11, 26, 26, 25, 24, 23, 23, 17, 15, 14, 14, 13, 12, 11, 10, 10, 10, 9, 9, 9, 8, 7, 6, 6, 5, 27, 24, 20, 13, 11, 8, 12, 11, 11, 11, 10, 10, 8, 8, 8, 8, 8, 8, 25, 23, 22, 19, 13, 12, 26, 25, 21, 20, 18, 15, 12, 12, 12, 12, 12, 12, 29, 29, 29, 29, 29, 29, 6, 5, 4, 3, 2, 2, 14, 12, 10, 10, 9, 6, 23, 22, 22, 21, 21, 21, 28, 26, 26, 25, 23, 23, 19, 18, 17, 15, 14, 14, 16, 14, 13, 12, 9, 9, 28, 28, 27, 25, 25, 24, 13, 12, 12, 12, 12, 12, 19, 15, 15, 9, 6, 2, 24, 20, 18, 11, 6, 4, 14, 14, 12, 11, 9, 8, 23, 18, 17, 14, 10, 9, 25, 25, 23, 22, 22, 21, 19, 15, 11, 9, 6, 3, 30, 26, 26, 25, 22, 21, 22, 16, 12, 12, 7, 4, 11, 11, 11, 11, 10, 10, 22, 20, 13, 11, 7, 5, 18, 16, 14, 12, 12, 10, 19, 18, 18, 17, 17, 17
 |28, 23, 21, 17, 13, 10, 24, 22, 18, 18, 12, 10, 25, 25, 22, 21, 18, 17, 8, 8, 6, 5, 4, 3, 30, 29, 29, 29, 28, 28, 8, 7, 7, 7, 7, 7, 19, 16, 14, 12, 11, 9, 17, 16, 11, 10, 6, 4, 13, 11, 10, 9, 9, 7, 20, 20, 18, 16, 15, 12, 9, 8, 6, 5, 5, 3, 24, 23, 23, 23, 22, 22, 29, 24, 23, 21, 18, 14, 10, 10, 9, 8, 9, 8, 25, 21, 21, 18, 16, 15, 21, 19, 16, 12, 9, 7, 17, 15, 11, 11, 7, 5, 28, 27, 24, 21, 19, 17, 28, 26, 25, 24, 24, 22, 27, 26, 26, 26, 25, 24, 27, 23, 23, 20, 15, 13, 18, 18, 16, 15, 14, 13, 25, 24, 23, 22, 21, 21, 27, 22, 20, 16, 12, 9, 28, 27, 26, 26, 26, 25, 26, 24, 18, 16, 11, 8, 27, 25, 25, 23, 22, 22, 25, 24, 24, 23, 22, 22, 20, 19, 18, 18, 18, 17, 15, 12, 9, 7, 7, 5, 24, 23, 23, 22, 22, 21, 30, 26, 22, 20, 19, 15, 8, 8, 8, 8, 9, 8, 28, 26, 25, 25, 23, 22, 13, 10, 8, 7, 4, 3, 19, 17, 15, 13, 8, 6, 20, 17, 13, 10, 6, 5, 26, 23, 21, 15, 12, 9, 4, 4, 3, 3, 2, 1, 16, 13, 12, 9, 9, 7, 14, 13, 11, 10, 9, 9, 23, 22, 20, 18, 16, 15, 13, 12, 8, 8, 6, 1, 18, 18, 18, 17, 17, 17, 27, 23, 19, 17, 11, 11, 22, 20, 16, 14, 14, 10, 27, 21, 17, 13, 8, 7, 14, 12, 10, 7, 6, 5, 17, 17, 16, 16, 15, 15, 26, 26, 23, 23, 21, 19|];